250 250
139 166 88 174 128 175 62 178 121 125 73 69 122 66 111 165 71 163 67 121 68 138 141 183 171 101 103 110 184 85 86 127 92 106 177 164 68 62 123 158 70 173 147 141 84 144 92 156 160 127
103 99 74 139 109 179 82 87 77 97 84 97 159 69 118 86 83 162 132 152 150 124 105 122 63 64 95 107 158 97 92 155 147 97 108 150 84 151 134 178 140 117 136 145 164 141 103 98 111 131
14317 16434 6512 24186 13952 31325 5084 15486 9317 12125 6132 6693 19398 4554 13098 14190 5893 26406 8844 18392 10200 17112 14805 22326 10773 6464 9785 11770 29072 8245 7912 19685 13524 10282 19116 24600 5712 9362 16482 28124 9800 20241 19992 20445 13776 20304 9476 15288 17760 16637